c --- [ banner ] -------------------------------------------------------------
c 
c CaDiCaL Radically Simplified CDCL SAT Solver
c Copyright (c) 2016-2021 A. Biere, M. Fleury, N. Froleyks
c 
c Version 1.5.2 a5f15211db36c3956764e18194dd5bd63bf3b5e6
c g++ (GCC) 9.3.0 -Wall -Wextra -O3 -DNDEBUG
c Fri Oct 21 01:27:37 EDT 2022 Linux gra-login3 3.10.0-1160.66.1.el7.x86_64 x86_64
c 
c --- [ limit ] --------------------------------------------------------------
c 
c setting conflict limit to 200000 conflicts (due to '200000')
c 
c --- [ parsing input ] ------------------------------------------------------
c 
c reading DIMACS file from '33.cubes6139.adj'
c opening file to read '33.cubes6139.adj'
c found 'p cnf 6160 1595479' header
c parsed 1595479 clauses in 19.11 seconds process time
c closing file '33.cubes6139.adj'
c after reading 1457566800 bytes 1390.0 MB
c 
c --- [ options ] ------------------------------------------------------------
c 
c all options are set to their default value
c 
c --- [ solving ] ------------------------------------------------------------
c 
c time measured in process time since initialization
c 
c  seconds    reductions  redundant   irredundant
c          MB     restarts       trail       variables
c            level   conflicts       glue         remaining
c 
c * 19.11 1379  0 0   0    0    0  0% 0 1595422 2380 39%
c { 20.08 1419  0 0   0    0    0  0% 0 1595422 2380 39%
c i 22.74 1487 394 0   6   81   54 28% 8 1595422 2379 39%
c i 23.05 1488 337 0   7   95   66 29% 8 1595422 2378 39%
c i 24.90 1503 218 0  24  171  135 28% 22 1595422 2361 38%
c i 24.91 1503 217 0  25  172  135 28% 22 1595422 2329 38%
c i 25.53 1505 213 0  29  190  146 28% 25 1595422 2327 38%
c i 25.55 1505 210 0  30  196  149 28% 26 1595422 2325 38%
c i 26.02 1507 160 0  39  280  211 28% 24 1595422 2324 38%
c i 26.04 1507 154 0  39  298  222 28% 24 1595422 2323 38%
c - 29.61 1495 150 1  39  307  225 28% 24 215147 2323 38%
c i 29.80 1362 150 1  39  309  226 28% 24 215147 2322 38%
c i 29.94 1362 146 1  39  322  237 28% 24 215147 2321 38%
c i 30.20 1362 144 1  46  353  264 29% 27 215147 2320 38%
c i 30.46 1362 141 1  52  387  292 28% 29 215147 2319 38%
c i 31.02 1362 130 1  62  467  359 28% 29 215147 2318 38%
c i 31.20 1362 127 1  71  495  383 28% 29 215147 2317 38%
c i 31.45 1362 128 1  79  538  414 28% 32 215147 2316 38%
c i 31.48 1362 126 1  81  546  420 28% 31 215147 2303 37%
c i 31.58 1362 127 1  83  555  428 28% 32 215147 2302 37%
c 
c  seconds     reductions  redundant   irredundant
c          MB      restarts       trail       variables
c             level   conflicts       glue         remaining
c 
c i 31.65 1362 125 1  87  568  439 28% 31 215147 2301 37%
c i 32.06 1362 125 1  97  606  472 28% 32 215147 2300 37%
c i 32.43 1362 123 1 104  656  518 28% 32 215147 2299 37%
c i 32.58 1362 122 1 104  667  528 28% 31 215147 2298 37%
c i 33.00 1362 105 1 106  866  702 28% 30 215147 2297 37%
c i 33.04 1362 104 1 106  873  708 28% 30 215147 2296 37%
c i 33.31 1362 100 1 109  961  780 29% 30 215147 2295 37%
c i 33.33 1362 99 1 109  966  784 29% 30 215147 2294 37%
c i 33.39 1362 97 1 109 1000  806 29% 30 215147 2293 37%
c } 33.39 1362 97 1 109 1000  806 29% 30 215147 2293 37%
c [ 33.39 1362  0 1 109 1000  806  0% 0 215147 2293 37%
c O 33.42 1362  6 1 109 1002  808 14% 4 215147 2293 37%
c i 33.62 1362 22 1 109 1054  856 31% 15 215147 2292 37%
c - 34.04 1456 24 2 109 1106  788 32% 17 214875 2292 37%
c i 34.16 1456 24 2 109 1161  836 32% 18 214875 2291 37%
c i 34.21 1456 23 2 109 1230  889 32% 18 214875 2290 37%
c i 34.24 1456 23 2 109 1317  953 32% 19 214875 2289 37%
c i 34.25 1456 23 2 109 1347  981 32% 18 214875 2288 37%
c i 34.27 1456 23 2 109 1400 1019 32% 18 214875 2287 37%
c i 34.27 1456 23 2 109 1402 1020 32% 18 214875 2286 37%
c 
c  seconds    reductions  redundant   irredundant
c          MB     restarts       trail       variables
c            level   conflicts       glue         remaining
c 
c i 34.30 1456 24 2 109 1506 1087 32% 20 214875 2285 37%
c i 34.34 1456 25 2 109 1629 1181 32% 20 214875 2284 37%
c i 34.34 1456 25 2 109 1641 1189 32% 20 214875 2283 37%
c i 34.40 1456 25 2 109 1862 1349 32% 20 214875 2282 37%
c i 34.40 1456 25 2 109 1873 1358 32% 20 214875 2281 37%
c i 34.41 1456 25 2 109 1893 1371 32% 20 214875 2280 37%
c i 34.43 1456 25 2 109 1969 1425 32% 21 214875 2279 37%
c - 34.82 1454 27 3 110 2304 1273 31% 22 214841 2279 37%
c i 35.03 1453 27 3 110 2324 1286 49% 22 214841 2278 37%
c ] 35.32 1453 27 3 110 3001 1774 52% 22 214841 2278 37%
c { 35.32 1453 97 3 110 3001 1774 77% 30 214841 2278 37%
c F 35.35 1453 97 3 110 3006 1777 77% 30 214841 2278 37%
c i 35.62 1453 86 3 110 3193 1940 73% 29 214841 2277 37%
c i 35.66 1453 81 3 110 3323 2032 70% 29 214841 2276 37%
c i 35.67 1453 81 3 110 3324 2032 70% 29 214841 2275 37%
c i 35.98 1453 79 3 120 3470 2144 68% 29 214841 2274 37%
c i 36.04 1453 79 3 120 3509 2176 67% 29 214841 2273 37%
c i 36.04 1453 78 3 120 3512 2178 67% 29 214841 2272 37%
c - 36.82 1363 72 4 139 3902 1780 63% 29 214822 2272 37%
c i 36.87 1363 71 4 139 3930 1801 62% 29 214822 2271 37%
c 
c  seconds    reductions  redundant   irredundant
c          MB     restarts       trail       variables
c            level   conflicts       glue         remaining
c 
c i 36.93 1363 71 4 141 4002 1866 62% 29 214822 2270 37%
c i 37.36 1363 70 4 149 4113 1962 61% 29 214822 2269 37%
c d 38.94 1363 60 4 163 5001 2692 58% 26 214802 2263 37%
c 2 38.99 1363 60 4 163 5001 4105 58% 26 214784 2261 37%
c p 43.00 1363 60 4 163 5001 6557 58% 26 214784 2221 36%
c d 43.31 1363 60 4 163 5001 6547 58% 26 214663 2220 36%
c - 45.13 1365 55 5 217 5902 2631 56% 25 214663 2220 36%
c # 45.26 1365 54 5 226 6007 2718 55% 25 214663 2220 36%
c } 47.48 1365 52 5 287 7006 3496 53% 25 214663 2220 36%
c [ 47.48 1365 27 5 287 7006 3496 52% 22 214663 2220 36%
c - 50.17 1365 23 6 288 8300 2931 50% 19 214663 2220 36%
c I 50.93 1365 22 6 289 10012 3893 49% 18 214663 2220 36%
c - 52.58 1365 50 7 290 11099 3435 49% 38 214663 2220 36%
c - 55.64 1365 86 8 292 14295 4372 50% 64 214663 2220 36%
c p 57.34 1365 90 8 292 15001 9114 50% 68 214663 2220 36%
c ] 57.45 1365 90 8 292 15011 9124 50% 68 214663 2220 36%
c { 57.45 1365 52 8 292 15011 9124 53% 25 214663 2220 36%
c B 57.54 1365 52 8 294 15015 9128 53% 25 214663 2220 36%
c - 60.65 1365 42 9 358 17890 4796 51% 23 214663 2220 36%
c s 61.34 1365 40 9 358 18779 5021 50% 22 213605 2220 36%
c 
c  seconds    reductions   redundant   irredundant
c          MB     restarts        trail       variables
c            level    conflicts       glue         remaining
c 
c v 64.75 1365 40 9 358 18779 5021 50% 22 213599 2220 36%
c t 64.82 1365 40 9 358 18779 5015 50% 22 213590 2220 36%
c e 65.63 1368 40 9 358 18779 4461 50% 22 210795 831 13%
c s 65.73 1368 40 9 358 18779 4454 50% 22 210719 831 13%
c W 69.11 1368 37 9 426 21017 6098 75% 22 210719 831 13%
c - 70.11 1368 37 10 481 21885 5504 75% 22 210719 831 13%
c - 75.31 1368 34 11 642 26253 5685 75% 21 210719 831 13%
c F 76.10 1368 33 11 645 28018 6700 75% 20 210719 831 13%
c 3 78.17 1368 31 11 672 30003 8464 75% 20 210719 831 13%
c p 79.39 1368 31 11 672 30003 10205 75% 20 210719 831 13%
c } 80.09 1368 30 11 673 31012 10802 76% 19 210719 831 13%
c [ 80.09 1368 90 11 673 31012 10802 137% 68 210719 831 13%
c - 80.16 1368 90 12 673 31020 6112 137% 68 210719 831 13%
c ] 80.88 1368 74 12 674 33694 7608 122% 56 210719 831 13%
c 1 80.88 1368 74 12 674 33694 7608 122% 56 210719 831 13%
c 
c --- [ writing output ] -----------------------------------------------------
c 
c writing simplified CNF to DIMACS file 'simp/33.cubes6139.adj.simp1'
c * 80.88 1368 74 12 674 33694 7608 122% 56 210719 831 13%
c opening file to write 'simp/33.cubes6139.adj.simp1'
c writing 'p cnf 6160 210719' header
c closing file 'simp/33.cubes6139.adj.simp1'
c after writing 101166990 bytes 96.5 MB
c wrote 210719 clauses in 0.75 seconds process time
c 
c --- [ writing extension ] --------------------------------------------------
c 
c writing extension stack to 'simp/33.cubes6139.adj.ext1'
c opening file to write 'simp/33.cubes6139.adj.ext1'
c closing file 'simp/33.cubes6139.adj.ext1'
c after writing 91702 bytes 0.1 MB
c wrote 4037 witnesses in 0.00 seconds process time
c 
c --- [ result ] -------------------------------------------------------------
c 
s SATISFIABLE
c 
c --- [ run-time profiling ] -------------------------------------------------
c 
c process time taken by individual solving procedures
c (percentage relative to process time for solving)
c 
c        49.36   79.92% search
c        36.95   59.82% unstable
c        19.11   30.94% parse
c        12.40   20.08% simplify
c        11.33   18.34% stable
c         6.48   10.49% probe
c         3.45    5.59% vivify
c         1.44    2.33% elim
c         0.97    1.56% lucky
c         0.18    0.29% subsume
c         0.12    0.19% walk
c         0.09    0.15% ternary
c   =================================
c        61.77   75.66% solve
c 
c last line shows process time for solving
c (percentage relative to total process time)
c 
c --- [ statistics ] ---------------------------------------------------------
c 
c chronological:              7114        21.11 %  of conflicts
c conflicts:                 33694       545.50    per second
c decisions:                 94177      1524.70    per second
c eliminated:                 1389        22.55 %  of all variables
c fixed:                       789        12.81 %  of all variables
c learned:                   32816        97.39 %  per conflict
c learned_lits:            6077093       100.00 %  learned literals
c minimized:                     0         0.00 %  learned literals
c shrunken:                3610086        59.40 %  learned literals
c minishrunken:             433605         7.14 %  learned literals
c propagations:            3824735         0.06 M  per second
c reduced:                   15370        45.62 %  per conflict
c rephased:                      7      4813.43    interval
c restarts:                    674        49.99    interval
c stabilizing:                   3        37.66 %  of conflicts
c substituted:                   7         0.11 %  of all variables
c subsumed:                  10623         0.32 %  of all clauses
c strengthened:               4044         0.12 %  of all clauses
c ternary:                    3550         0.77 %  of resolved
c vivified:                     17         0.00 %  of all clauses
c walked:                        1     33694.00    interval
c weakened:                   3248         3.05    average size
c 
c seconds are measured in process time for solving
c 
c --- [ resources ] ----------------------------------------------------------
c 
c total process time since initialization:        81.64    seconds
c total real time since initialization:           81.82    seconds
c maximum resident set size of process:         1546.57    MB
c 
c --- [ shutting down ] ------------------------------------------------------
c 
c exit 10
WARNING! DIMACS header mismatch: wrong number of variables.
============================[ Problem Statistics ]=============================
|                                                                             |
|  Number of variables:          6120                                         |
|  Number of clauses:          210721                                         |
|  Parse time:                   1.34 s                                       |
|  Simplification time:          0.02 s                                       |
|                                                                             |
============================[ Search Statistics ]====================================================
| Conflicts |          ORIGINAL         |          LEARNT          | Num Sols |      SUBGRAPHS      |
|           |    Vars  Clauses Literals |    Limit  Clauses Lit/Cl |          | Canonical Noncanon. |
=====================================================================================================
|       108 |    6030   210729 21826440 |     2000      108    228 |        0 |        11         8 |
|       299 |    6030   210770 21826966 |     2000      299    136 |        0 |        36        49 |
|       808 |    6030   211054 21830810 |     2000      808     63 |        0 |       121       333 |
|      1291 |    6030   211200 21832951 |     2000     1291     66 |        0 |       155       479 |
|      2146 |    6030   211549 21837861 |     3601     1147     21 |        0 |       263       828 |
|      2986 |    6030   211630 21839132 |     3601     1987     57 |        0 |       282       909 |
|      4414 |    6030   211919 21843051 |     3601     3415     71 |        0 |       398      1198 |
|      9379 |    6030   215176 21878453 |     6303     4082     19 |        0 |       976      4455 |
|     13326 |    6030   216561 21894193 |     7556     4882     42 |        0 |      1191      5840 |
|     17665 |    6030   217056 21903288 |     8783     5448     38 |        0 |      1336      6335 |
|     23640 |    6030   217265 21906398 |     9998     7038     47 |        0 |      1418      6544 |
|     34681 |    6014   219656 21935163 |    12410     7491     38 |        0 |      1855      8936 |
|     48422 |    6014   220423 21945250 |    14814     8236     29 |        0 |      2039      9703 |
|     68645 |    6014   221185 21955775 |    17210    13055     50 |        0 |      2235     10465 |
|     98333 |    6014   221681 21963961 |    20808    15141     51 |        0 |      2494     10961 |
|    143248 |    5999   222807 21978284 |    25605    14852     39 |        0 |      2892     12087 |
=====================================================================================================
Number of solutions   : 0
Canonical subgraphs   : 3121           (23 /sec)
          order  3    : 1              (166667 /sec)
          order  4    : 1              (500000 /sec)
          order  5    : 1              (250000 /sec)
          order  6    : 1              (55556 /sec)
          order  7    : 1              (7937 /sec)
          order  8    : 2              (1358 /sec)
          order  9    : 7              (354 /sec)
          order 10    : 30             (109 /sec)
          order 11    : 153            (39 /sec)
          order 12    : 860            (42 /sec)
          order 13    : 296            (60 /sec)
          order 14    : 162            (36 /sec)
          order 15    : 93             (30 /sec)
          order 16    : 462            (19 /sec)
          order 17    : 474            (16 /sec)
          order 18    : 481            (12 /sec)
          order 19    : 77             (13 /sec)
          order 20    : 12             (15 /sec)
          order 21    : 7              (17 /sec)
          order 22    : 0              (-nan /sec)
Noncanonical subgraphs: 12488          (433 /sec)
          order  3    : 0              (-nan /sec)
          order  4    : 0              (-nan /sec)
          order  5    : 0              (-nan /sec)
          order  6    : 0              (-nan /sec)
          order  7    : 0              (-nan /sec)
          order  8    : 0              (-nan /sec)
          order  9    : 0              (-nan /sec)
          order 10    : 0              (-nan /sec)
          order 11    : 0              (-nan /sec)
          order 12    : 0              (-nan /sec)
          order 13    : 8197           (2077 /sec)
          order 14    : 1195           (2422 /sec)
          order 15    : 519            (1890 /sec)
          order 16    : 1345           (142 /sec)
          order 17    : 341            (114 /sec)
          order 18    : 769            (90 /sec)
          order 19    : 114            (47 /sec)
          order 20    : 0              (-nan /sec)
          order 21    : 0              (-nan /sec)
Canonicity checking   : 136.115 s
Noncanonicity checking: 28.8716 s
Total canonicity time : 164.987 s
database reductions   : 22
restarts              : 509
conflicts             : 188545         (831 /sec)
decisions             : 272115         (0.00 % random) (1200 /sec)
propagations          : 8196526        (36141 /sec)
conflict literals     : 18570979       (55.48 % deleted)
actual reward         : 0.287430
Memory used           : 280.00 MB
CPU time              : 226.793 s

UNSATISFIABLE
